Read MPS format model from file dat/rmp/4node_8192_20.mps
Reading time = 0.36 seconds
: 8252 rows, 41100 columns, 973340 nonzeros
Gurobi Optimizer version 9.0.0 build v9.0.0rc2 (linux64)
Optimize a model with 8252 rows, 41100 columns and 973340 nonzeros
Model fingerprint: 0x299959ec
Coefficient statistics:
  Matrix range     [7e-04, 2e+01]
  Objective range  [9e-03, 1e+04]
  Bounds range     [0e+00, 0e+00]
  RHS range        [1e+00, 8e+01]
Ordering time: 0.01s

Barrier statistics:
 AA' NZ     : 3.846e+05
 Factor NZ  : 4.782e+05 (roughly 24 MBytes of memory)
 Factor Ops : 2.981e+07 (less than 1 second per iteration)
 Threads    : 1

                  Objective                Residual
Iter       Primal          Dual         Primal    Dual     Compl     Time
   0   2.14310166e+07  0.00000000e+00  4.67e+04 2.40e+02  4.74e+04     0s
   1   7.89708992e+05 -3.72048296e+07  1.62e+03 1.47e+03  2.80e+03     0s
   2   4.82665970e+05 -3.36854535e+07  8.25e+02 1.35e+03  1.86e+03     0s
   3   2.32908827e+05 -2.27270528e+07  3.06e+02 6.69e+02  9.06e+02     0s
   4   1.31654367e+05 -8.74931388e+06  1.31e+01 1.72e+02  2.69e+02     0s
   5   1.12891310e+05 -6.51992429e+05  5.66e-09 1.27e+01  2.22e+01     1s
   6   8.62480304e+04 -3.73464600e+05  3.48e-09 7.62e+00  1.33e+01     1s
   7   4.28891253e+04 -1.99953186e+05  4.35e-09 4.27e+00  7.01e+00     1s
   8   1.20733205e+04 -5.48019905e+04  6.80e-10 1.20e+00  1.91e+00     1s
   9   4.98912555e+03 -1.25144585e+04  2.58e-10 2.10e-01  4.72e-01     1s
  10   2.92043079e+03 -5.66620645e+03  2.32e-10 6.88e-02  2.24e-01     1s
  11   4.70031204e+02 -3.18483823e+03  7.07e-10 1.44e-02  9.20e-02     1s
  12  -6.79435452e+01 -1.51071497e+03  9.73e-09 1.94e-03  3.55e-02     1s
  13  -1.98507483e+02 -6.03504360e+02  1.53e-08 3.23e-04  9.93e-03     1s
  14  -3.74344327e+02 -5.36586206e+02  1.72e-08 1.48e-04  3.98e-03     1s
  15  -4.08466697e+02 -4.64436699e+02  9.13e-08 1.04e-05  1.36e-03     1s
  16  -4.18793318e+02 -4.54437610e+02  2.04e-07 5.57e-06  8.69e-04     1s
  17  -4.30899423e+02 -4.48693173e+02  2.78e-07 3.55e-06  4.34e-04     1s
  18  -4.38261340e+02 -4.43895489e+02  6.63e-07 2.11e-07  1.37e-04     1s
  19  -4.41665066e+02 -4.43772406e+02  1.21e-06 9.18e-08  5.13e-05     2s
  20  -4.42483618e+02 -4.43711679e+02  7.14e-07 4.88e-08  2.99e-05     2s
  21  -4.42707791e+02 -4.43676258e+02  5.75e-07 2.91e-08  2.36e-05     2s
  22  -4.42885708e+02 -4.43654244e+02  4.71e-07 1.43e-08  1.87e-05     2s
  23  -4.43060502e+02 -4.43638611e+02  3.73e-07 6.00e-09  1.41e-05     2s
  24  -4.43247549e+02 -4.43627866e+02  4.99e-07 2.47e-09  9.26e-06     2s
  25  -4.43247561e+02 -4.43628036e+02  1.06e-06 2.47e-09  9.26e-06     2s
  26  -4.43247572e+02 -4.43628117e+02  1.80e-06 2.47e-09  9.26e-06     2s
  27  -4.43247538e+02 -4.43626240e+02  4.47e-07 2.47e-09  9.22e-06     2s
  28  -4.43247550e+02 -4.43626514e+02  4.91e-07 2.46e-09  9.22e-06     3s
  29  -4.43247562e+02 -4.43626801e+02  9.48e-07 2.46e-09  9.23e-06     3s
  30  -4.43247573e+02 -4.43626915e+02  1.63e-06 2.46e-09  9.23e-06     3s
  31  -4.43247541e+02 -4.43626096e+02  3.72e-07 2.46e-09  9.21e-06     3s
  32  -4.43247551e+02 -4.43626241e+02  4.64e-07 2.46e-09  9.22e-06     3s
  33  -4.43247565e+02 -4.43628605e+02  1.01e-06 2.44e-09  9.27e-06     3s
  34  -4.43247546e+02 -4.43627379e+02  6.29e-07 2.43e-09  9.24e-06     3s
  35  -4.43247569e+02 -4.43620782e+02  7.81e-07 1.38e-09  9.08e-06     3s
  36  -4.43247575e+02 -4.43619183e+02  1.71e-06 1.29e-09  9.04e-06     3s
  37  -4.43247636e+02 -4.43617417e+02  2.85e-06 1.13e-09  9.00e-06     3s
  38  -4.43247715e+02 -4.43616072e+02  3.07e-06 6.57e-10  8.96e-06     3s
  39  -4.43247692e+02 -4.43616007e+02  4.16e-06 6.56e-10  8.96e-06     3s
  40  -4.43247647e+02 -4.43615977e+02  6.19e-06 6.56e-10  8.96e-06     3s
  41  -4.43247571e+02 -4.43615961e+02  1.01e-05 6.56e-10  8.96e-06     4s
  42  -4.43247777e+02 -4.43616454e+02  2.01e-06 6.56e-10  8.97e-06     4s
  43  -4.43247834e+02 -4.43617075e+02  2.14e-06 6.22e-10  8.99e-06     4s
  44  -4.43247852e+02 -4.43616584e+02  1.30e-06 5.66e-10  8.97e-06     4s
  45  -4.43247881e+02 -4.43616872e+02  2.52e-06 5.65e-10  8.98e-06     4s
  46  -4.43247879e+02 -4.43616391e+02  1.53e-06 5.55e-10  8.97e-06     4s
  47  -4.43247865e+02 -4.43616181e+02  1.72e-06 5.54e-10  8.96e-06     4s
  48  -4.43247889e+02 -4.43616360e+02  1.74e-06 5.53e-10  8.97e-06     4s
  49  -4.43247876e+02 -4.43617157e+02  2.38e-06 3.96e-10  8.99e-06     4s
  50  -4.43247863e+02 -4.43617122e+02  3.03e-06 3.96e-10  8.98e-06     4s
  51  -4.43247838e+02 -4.43617106e+02  4.29e-06 3.96e-10  8.98e-06     4s

Barrier performed 51 iterations in 4.26 seconds
Sub-optimal termination - objective -4.43247541e+02

Solve time: 4.262033002
Barrier iterations: 51
